2
Properties=species:S:1:pos:R:3 pbc="F F F"
Fe       0.00000000       0.00000000       0.00000000
Fe       0.00000000       0.00000000       0.74000000
2
Properties=species:S:1:pos:R:3 pbc="F F F"
Fe       0.00000000       0.00000000       0.00000000
Fe       0.00000000       0.00000000       0.74000000
2
Properties=species:S:1:pos:R:3 pbc="F F F"
Fe       0.00000000       0.00000000       0.00000000
Fe       0.00000000       0.00000000       0.74000000
2
Properties=species:S:1:pos:R:3 pbc="F F F"
Fe       0.00000000       0.00000000       0.00000000
Fe       0.00000000       0.00000000       0.74000000
2
Properties=species:S:1:pos:R:3 pbc="F F F"
Fe       0.00000000       0.00000000       0.00000000
Fe       0.00000000       0.00000000       0.74000000
2
Properties=species:S:1:pos:R:3 pbc="F F F"
Fe       0.00000000       0.00000000       0.00000000
Fe       0.00000000       0.00000000       0.74000000
2
Properties=species:S:1:pos:R:3 pbc="F F F"
Fe       0.00000000       0.00000000       0.00000000
Fe       0.00000000       0.00000000       0.74000000
2
Properties=species:S:1:pos:R:3 pbc="F F F"
Fe       0.00000000       0.00000000       0.00000000
Fe       0.00000000       0.00000000       0.74000000
2
Properties=species:S:1:pos:R:3 pbc="F F F"
Fe       0.00000000       0.00000000       0.00000000
Fe       0.00000000       0.00000000       0.74000000
2
Properties=species:S:1:pos:R:3 pbc="F F F"
Fe       0.00000000       0.00000000       0.00000000
Fe       0.00000000       0.00000000       0.74000000
2
Properties=species:S:1:pos:R:3 pbc="F F F"
Fe       0.00000000       0.00000000       0.00000000
Fe       0.00000000       0.00000000       0.74000000
2
Properties=species:S:1:pos:R:3 pbc="F F F"
Fe       0.00000000       0.00000000       0.00000000
Fe       0.00000000       0.00000000       0.74000000
2
Properties=species:S:1:pos:R:3 pbc="F F F"
Fe       0.00000000       0.00000000       0.00000000
Fe       0.00000000       0.00000000       0.74000000
2
Properties=species:S:1:pos:R:3 pbc="F F F"
Fe       0.00000000       0.00000000       0.00000000
Fe       0.00000000       0.00000000       0.74000000
2
Properties=species:S:1:pos:R:3 pbc="F F F"
Fe       0.00000000       0.00000000       0.00000000
Fe       0.00000000       0.00000000       0.74000000
2
Properties=species:S:1:pos:R:3 pbc="F F F"
Fe       0.00000000       0.00000000       0.00000000
Fe       0.00000000       0.00000000       0.74000000
2
Properties=species:S:1:pos:R:3 pbc="F F F"
Fe       0.00000000       0.00000000       0.00000000
Fe       0.00000000       0.00000000       0.74000000
2
Properties=species:S:1:pos:R:3 pbc="F F F"
Fe       0.00000000       0.00000000       0.00000000
Fe       0.00000000       0.00000000       0.74000000
2
Properties=species:S:1:pos:R:3 pbc="F F F"
Fe       0.00000000       0.00000000       0.00000000
Fe       0.00000000       0.00000000       0.74000000
2
Properties=species:S:1:pos:R:3 pbc="F F F"
Fe       0.00000000       0.00000000       0.00000000
Fe       0.00000000       0.00000000       0.74000000
2
Properties=species:S:1:pos:R:3 pbc="F F F"
Fe       0.00000000       0.00000000       0.00000000
Fe       0.00000000       0.00000000       0.74000000
2
Properties=species:S:1:pos:R:3 pbc="F F F"
Fe       0.00000000       0.00000000       0.00000000
Fe       0.00000000       0.00000000       0.74000000
2
Properties=species:S:1:pos:R:3 pbc="F F F"
Fe       0.00000000       0.00000000       0.00000000
Fe       0.00000000       0.00000000       0.74000000
2
Properties=species:S:1:pos:R:3 pbc="F F F"
Fe       0.00000000       0.00000000       0.00000000
Fe       0.00000000       0.00000000       0.74000000
2
Properties=species:S:1:pos:R:3 pbc="F F F"
Fe       0.00000000       0.00000000       0.00000000
Fe       0.00000000       0.00000000       0.74000000
2
Properties=species:S:1:pos:R:3 pbc="F F F"
Fe       0.00000000       0.00000000       0.00000000
Fe       0.00000000       0.00000000       0.74000000
2
Properties=species:S:1:pos:R:3 pbc="F F F"
Fe       0.00000000       0.00000000       0.00000000
Fe       0.00000000       0.00000000       0.74000000
2
Properties=species:S:1:pos:R:3 pbc="F F F"
Fe       0.00000000       0.00000000       0.00000000
Fe       0.00000000       0.00000000       0.74000000
2
Properties=species:S:1:pos:R:3 pbc="F F F"
Fe       0.00000000       0.00000000       0.00000000
Fe       0.00000000       0.00000000       0.74000000
2
Properties=species:S:1:pos:R:3 pbc="F F F"
Fe       0.00000000       0.00000000       0.00000000
Fe       0.00000000       0.00000000       0.74000000
2
Properties=species:S:1:pos:R:3 pbc="F F F"
Fe       0.00000000       0.00000000       0.00000000
Fe       0.00000000       0.00000000       0.74000000
2
Properties=species:S:1:pos:R:3 pbc="F F F"
Fe       0.00000000       0.00000000       0.00000000
Fe       0.00000000       0.00000000       0.74000000
2
Properties=species:S:1:pos:R:3 pbc="F F F"
Fe       0.00000000       0.00000000       0.00000000
Fe       0.00000000       0.00000000       0.74000000
2
Properties=species:S:1:pos:R:3 pbc="F F F"
Fe       0.00000000       0.00000000       0.00000000
Fe       0.00000000       0.00000000       0.74000000
2
Properties=species:S:1:pos:R:3 pbc="F F F"
Fe       0.00000000       0.00000000       0.00000000
Fe       0.00000000       0.00000000       0.74000000
2
Properties=species:S:1:pos:R:3 pbc="F F F"
Fe       0.00000000       0.00000000       0.00000000
Fe       0.00000000       0.00000000       0.74000000
2
Properties=species:S:1:pos:R:3 pbc="F F F"
Fe       0.00000000       0.00000000       0.00000000
Fe       0.00000000       0.00000000       0.74000000
2
Properties=species:S:1:pos:R:3 pbc="F F F"
Fe       0.00000000       0.00000000       0.00000000
Fe       0.00000000       0.00000000       0.74000000
2
Properties=species:S:1:pos:R:3 pbc="F F F"
Fe       0.00000000       0.00000000       0.00000000
Fe       0.00000000       0.00000000       0.74000000
2
Properties=species:S:1:pos:R:3 pbc="F F F"
Fe       0.00000000       0.00000000       0.00000000
Fe       0.00000000       0.00000000       0.74000000
2
Properties=species:S:1:pos:R:3 pbc="F F F"
Fe       0.00000000       0.00000000       0.00000000
Fe       0.00000000       0.00000000       0.74000000
2
Properties=species:S:1:pos:R:3 pbc="F F F"
Fe       0.00000000       0.00000000       0.00000000
Fe       0.00000000       0.00000000       0.74000000
2
Properties=species:S:1:pos:R:3 pbc="F F F"
Fe       0.00000000       0.00000000       0.00000000
Fe       0.00000000       0.00000000       0.74000000
2
Properties=species:S:1:pos:R:3 pbc="F F F"
Fe       0.00000000       0.00000000       0.00000000
Fe       0.00000000       0.00000000       0.74000000
2
Properties=species:S:1:pos:R:3 pbc="F F F"
Fe       0.00000000       0.00000000       0.00000000
Fe       0.00000000       0.00000000       0.74000000
2
Properties=species:S:1:pos:R:3 pbc="F F F"
Fe       0.00000000       0.00000000       0.00000000
Fe       0.00000000       0.00000000       0.74000000
2
Properties=species:S:1:pos:R:3 pbc="F F F"
Fe       0.00000000       0.00000000       0.00000000
Fe       0.00000000       0.00000000       0.74000000
2
Properties=species:S:1:pos:R:3 pbc="F F F"
Fe       0.00000000       0.00000000       0.00000000
Fe       0.00000000       0.00000000       0.74000000
2
Properties=species:S:1:pos:R:3 pbc="F F F"
Fe       0.00000000       0.00000000       0.00000000
Fe       0.00000000       0.00000000       0.74000000
2
Properties=species:S:1:pos:R:3 pbc="F F F"
Fe       0.00000000       0.00000000       0.00000000
Fe       0.00000000       0.00000000       0.74000000
