16
Lattice="10.0 0.0 0.0 0.0 10.0 0.0 0.0 0.0 10.0" Properties=species:S:1:pos:R:3:forces:R:3:c_gamma:R:1 energy=-160.0 pbc="T T T"
Mg       0.00000000       0.00000000       0.00000000       0.00000000       0.00000000       0.00000000       0.04038917
O        0.00000000       0.00000000       0.00000000       0.00000000       0.00000000       0.00000000       0.09259014
Mg       0.00000000       0.00000000       5.00000000       0.00000000       0.00000000       0.00000000       0.06897540
O        0.00000000       0.00000000       5.00000000       0.00000000       0.00000000       0.00000000       0.02462904
Mg       0.00000000       5.00000000       0.00000000       0.00000000       0.00000000       0.00000000       0.04784339
O        0.00000000       5.00000000       0.00000000       0.00000000       0.00000000       0.00000000       0.04921250
Mg       0.00000000       5.00000000       5.00000000       0.00000000       0.00000000       0.00000000       0.09713553
O        0.00000000       5.00000000       5.00000000       0.00000000       0.00000000       0.00000000       0.06706132
Mg       5.00000000       0.00000000       0.00000000       0.00000000       0.00000000       0.00000000       0.02396285
O        5.00000000       0.00000000       0.00000000       0.00000000       0.00000000       0.00000000       0.03290727
Mg       5.00000000       0.00000000       5.00000000       0.00000000       0.00000000       0.00000000       0.09689267
O        5.00000000       0.00000000       5.00000000       0.00000000       0.00000000       0.00000000       0.05577188
Mg       5.00000000       5.00000000       0.00000000       0.00000000       0.00000000       0.00000000       0.07773409
O        5.00000000       5.00000000       0.00000000       0.00000000       0.00000000       0.00000000       0.01488284
Mg       5.00000000       5.00000000       5.00000000       0.00000000       0.00000000       0.00000000       0.01096333
O        5.00000000       5.00000000       5.00000000       0.00000000       0.00000000       0.00000000       0.01657970
16
Lattice="10.0 0.0 0.0 0.0 10.0 0.0 0.0 0.0 10.0" Properties=species:S:1:pos:R:3:forces:R:3:c_gamma:R:1 energy=-160.0 pbc="T T T"
Mg       0.00000000       0.00000000       0.00000000       0.00000000       0.00000000       0.00000000       0.01734149
O        0.00000000       0.00000000       0.00000000       0.00000000       0.00000000       0.00000000       0.06318399
Mg       0.00000000       0.00000000       5.00000000       0.00000000       0.00000000       0.00000000       0.08059619
O        0.00000000       0.00000000       5.00000000       0.00000000       0.00000000       0.00000000       0.04642156
Mg       0.00000000       5.00000000       0.00000000       0.00000000       0.00000000       0.00000000       0.09305523
O        0.00000000       5.00000000       0.00000000       0.00000000       0.00000000       0.00000000       0.09058081
Mg       0.00000000       5.00000000       5.00000000       0.00000000       0.00000000       0.00000000       0.04582338
O        0.00000000       5.00000000       5.00000000       0.00000000       0.00000000       0.00000000       0.02276946
Mg       5.00000000       0.00000000       0.00000000       0.00000000       0.00000000       0.00000000       0.01157384
O        5.00000000       0.00000000       0.00000000       0.00000000       0.00000000       0.00000000       0.08104120
Mg       5.00000000       0.00000000       5.00000000       0.00000000       0.00000000       0.00000000       0.09001461
O        5.00000000       0.00000000       5.00000000       0.00000000       0.00000000       0.00000000       0.04716572
Mg       5.00000000       5.00000000       0.00000000       0.00000000       0.00000000       0.00000000       0.04334375
O        5.00000000       5.00000000       0.00000000       0.00000000       0.00000000       0.00000000       0.06760280
Mg       5.00000000       5.00000000       5.00000000       0.00000000       0.00000000       0.00000000       0.07006612
O        5.00000000       5.00000000       5.00000000       0.00000000       0.00000000       0.00000000       0.01499830
16
Lattice="10.0 0.0 0.0 0.0 10.0 0.0 0.0 0.0 10.0" Properties=species:S:1:pos:R:3:forces:R:3:c_gamma:R:1 energy=-160.0 pbc="T T T"
Mg       0.00000000       0.00000000       0.00000000       0.00000000       0.00000000       0.00000000       0.03515138
O        0.00000000       0.00000000       0.00000000       0.00000000       0.00000000       0.00000000       0.03642417
Mg       0.00000000       0.00000000       5.00000000       0.00000000       0.00000000       0.00000000       0.04767242
O        0.00000000       0.00000000       5.00000000       0.00000000       0.00000000       0.00000000       0.04585958
Mg       0.00000000       5.00000000       0.00000000       0.00000000       0.00000000       0.00000000       0.04978390
O        0.00000000       5.00000000       0.00000000       0.00000000       0.00000000       0.00000000       0.02849762
Mg       0.00000000       5.00000000       5.00000000       0.00000000       0.00000000       0.00000000       0.04055050
O        0.00000000       5.00000000       5.00000000       0.00000000       0.00000000       0.00000000       0.09867944
Mg       5.00000000       0.00000000       0.00000000       0.00000000       0.00000000       0.00000000       0.09631490
O        5.00000000       0.00000000       0.00000000       0.00000000       0.00000000       0.00000000       0.04386608
Mg       5.00000000       0.00000000       5.00000000       0.00000000       0.00000000       0.00000000       0.02775440
O        5.00000000       0.00000000       5.00000000       0.00000000       0.00000000       0.00000000       0.01505611
Mg       5.00000000       5.00000000       0.00000000       0.00000000       0.00000000       0.00000000       0.04704837
O        5.00000000       5.00000000       0.00000000       0.00000000       0.00000000       0.00000000       0.03492140
Mg       5.00000000       5.00000000       5.00000000       0.00000000       0.00000000       0.00000000       0.05114912
O        5.00000000       5.00000000       5.00000000       0.00000000       0.00000000       0.00000000       0.05878961
16
Lattice="10.0 0.0 0.0 0.0 10.0 0.0 0.0 0.0 10.0" Properties=species:S:1:pos:R:3:forces:R:3:c_gamma:R:1 energy=-160.0 pbc="T T T"
Mg       0.00000000       0.00000000       0.00000000       0.00000000       0.00000000       0.00000000       0.05054722
O        0.00000000       0.00000000       0.00000000       0.00000000       0.00000000       0.00000000       0.03203109
Mg       0.00000000       0.00000000       5.00000000       0.00000000       0.00000000       0.00000000       0.05725628
O        0.00000000       0.00000000       5.00000000       0.00000000       0.00000000       0.00000000       0.09827855
Mg       0.00000000       5.00000000       0.00000000       0.00000000       0.00000000       0.00000000       0.03000268
O        0.00000000       5.00000000       0.00000000       0.00000000       0.00000000       0.00000000       0.01308657
Mg       0.00000000       5.00000000       5.00000000       0.00000000       0.00000000       0.00000000       0.02281684
O        0.00000000       5.00000000       5.00000000       0.00000000       0.00000000       0.00000000       0.07260746
Mg       5.00000000       0.00000000       0.00000000       0.00000000       0.00000000       0.00000000       0.05320366
O        5.00000000       0.00000000       0.00000000       0.00000000       0.00000000       0.00000000       0.08740481
Mg       5.00000000       0.00000000       5.00000000       0.00000000       0.00000000       0.00000000       0.07942851
O        5.00000000       0.00000000       5.00000000       0.00000000       0.00000000       0.00000000       0.06294572
Mg       5.00000000       5.00000000       0.00000000       0.00000000       0.00000000       0.00000000       0.02096003
O        5.00000000       5.00000000       0.00000000       0.00000000       0.00000000       0.00000000       0.06053720
Mg       5.00000000       5.00000000       5.00000000       0.00000000       0.00000000       0.00000000       0.09384246
O        5.00000000       5.00000000       5.00000000       0.00000000       0.00000000       0.00000000       0.07338747
16
Lattice="10.0 0.0 0.0 0.0 10.0 0.0 0.0 0.0 10.0" Properties=species:S:1:pos:R:3:forces:R:3:c_gamma:R:1 energy=-160.0 pbc="T T T"
Mg       0.00000000       0.00000000       0.00000000       0.00000000       0.00000000       0.00000000       0.06134172
O        0.00000000       0.00000000       0.00000000       0.00000000       0.00000000       0.00000000       0.02510343
Mg       0.00000000       0.00000000       5.00000000       0.00000000       0.00000000       0.00000000       0.09513877
O        0.00000000       0.00000000       5.00000000       0.00000000       0.00000000       0.00000000       0.02243143
Mg       0.00000000       5.00000000       0.00000000       0.00000000       0.00000000       0.00000000       0.04534763
O        0.00000000       5.00000000       0.00000000       0.00000000       0.00000000       0.00000000       0.01076144
Mg       0.00000000       5.00000000       5.00000000       0.00000000       0.00000000       0.00000000       0.01874728
O        0.00000000       5.00000000       5.00000000       0.00000000       0.00000000       0.00000000       0.02461941
Mg       5.00000000       0.00000000       0.00000000       0.00000000       0.00000000       0.00000000       0.03743714
O        5.00000000       0.00000000       0.00000000       0.00000000       0.00000000       0.00000000       0.01492249
Mg       5.00000000       0.00000000       5.00000000       0.00000000       0.00000000       0.00000000       0.04760569
O        5.00000000       0.00000000       5.00000000       0.00000000       0.00000000       0.00000000       0.01515203
Mg       5.00000000       5.00000000       0.00000000       0.00000000       0.00000000       0.00000000       0.02861896
O        5.00000000       5.00000000       0.00000000       0.00000000       0.00000000       0.00000000       0.07821489
Mg       5.00000000       5.00000000       5.00000000       0.00000000       0.00000000       0.00000000       0.01419594
O        5.00000000       5.00000000       5.00000000       0.00000000       0.00000000       0.00000000       0.07617026
16
Lattice="10.0 0.0 0.0 0.0 10.0 0.0 0.0 0.0 10.0" Properties=species:S:1:pos:R:3:forces:R:3:c_gamma:R:1 energy=-160.0 pbc="T T T"
Mg       0.00000000       0.00000000       0.00000000       0.00000000       0.00000000       0.00000000       0.04035615
O        0.00000000       0.00000000       0.00000000       0.00000000       0.00000000       0.00000000       0.02764107
Mg       0.00000000       0.00000000       5.00000000       0.00000000       0.00000000       0.00000000       0.03254635
O        0.00000000       0.00000000       5.00000000       0.00000000       0.00000000       0.00000000       0.08895920
Mg       0.00000000       5.00000000       0.00000000       0.00000000       0.00000000       0.00000000       0.09156978
O        0.00000000       5.00000000       0.00000000       0.00000000       0.00000000       0.00000000       0.09145567
Mg       0.00000000       5.00000000       5.00000000       0.00000000       0.00000000       0.00000000       0.03603292
O        0.00000000       5.00000000       5.00000000       0.00000000       0.00000000       0.00000000       0.03254148
Mg       5.00000000       0.00000000       0.00000000       0.00000000       0.00000000       0.00000000       0.01337567
O        5.00000000       0.00000000       0.00000000       0.00000000       0.00000000       0.00000000       0.06108627
Mg       5.00000000       0.00000000       5.00000000       0.00000000       0.00000000       0.00000000       0.02307929
O        5.00000000       0.00000000       5.00000000       0.00000000       0.00000000       0.00000000       0.01568729
Mg       5.00000000       5.00000000       0.00000000       0.00000000       0.00000000       0.00000000       0.07014947
O        5.00000000       5.00000000       0.00000000       0.00000000       0.00000000       0.00000000       0.01016522
Mg       5.00000000       5.00000000       5.00000000       0.00000000       0.00000000       0.00000000       0.06107387
O        5.00000000       5.00000000       5.00000000       0.00000000       0.00000000       0.00000000       0.05708423
16
Lattice="10.0 0.0 0.0 0.0 10.0 0.0 0.0 0.0 10.0" Properties=species:S:1:pos:R:3:forces:R:3:c_gamma:R:1 energy=-160.0 pbc="T T T"
Mg       0.00000000       0.00000000       0.00000000       0.00000000       0.00000000       0.00000000       0.03340779
O        0.00000000       0.00000000       0.00000000       0.00000000       0.00000000       0.00000000       0.03984967
Mg       0.00000000       0.00000000       5.00000000       0.00000000       0.00000000       0.00000000       0.02592740
O        0.00000000       0.00000000       5.00000000       0.00000000       0.00000000       0.00000000       0.08369440
Mg       0.00000000       5.00000000       0.00000000       0.00000000       0.00000000       0.00000000       0.02514955
O        0.00000000       5.00000000       0.00000000       0.00000000       0.00000000       0.00000000       0.08035872
Mg       0.00000000       5.00000000       5.00000000       0.00000000       0.00000000       0.00000000       0.07772886
O        0.00000000       5.00000000       5.00000000       0.00000000       0.00000000       0.00000000       0.07648233
Mg       5.00000000       0.00000000       0.00000000       0.00000000       0.00000000       0.00000000       0.04673804
O        5.00000000       0.00000000       0.00000000       0.00000000       0.00000000       0.00000000       0.03735823
Mg       5.00000000       0.00000000       5.00000000       0.00000000       0.00000000       0.00000000       0.06967106
O        5.00000000       0.00000000       5.00000000       0.00000000       0.00000000       0.00000000       0.09000529
Mg       5.00000000       5.00000000       0.00000000       0.00000000       0.00000000       0.00000000       0.07223640
O        5.00000000       5.00000000       0.00000000       0.00000000       0.00000000       0.00000000       0.09983913
Mg       5.00000000       5.00000000       5.00000000       0.00000000       0.00000000       0.00000000       0.08859986
O        5.00000000       5.00000000       5.00000000       0.00000000       0.00000000       0.00000000       0.01562418
16
Lattice="10.0 0.0 0.0 0.0 10.0 0.0 0.0 0.0 10.0" Properties=species:S:1:pos:R:3:forces:R:3:c_gamma:R:1 energy=-160.0 pbc="T T T"
Mg       0.00000000       0.00000000       0.00000000       0.00000000       0.00000000       0.00000000       0.01454234
O        0.00000000       0.00000000       0.00000000       0.00000000       0.00000000       0.00000000       0.04075472
Mg       0.00000000       0.00000000       5.00000000       0.00000000       0.00000000       0.00000000       0.04813352
O        0.00000000       0.00000000       5.00000000       0.00000000       0.00000000       0.00000000       0.04138223
Mg       0.00000000       5.00000000       0.00000000       0.00000000       0.00000000       0.00000000       0.04305369
O        0.00000000       5.00000000       0.00000000       0.00000000       0.00000000       0.00000000       0.06602088
Mg       0.00000000       5.00000000       5.00000000       0.00000000       0.00000000       0.00000000       0.09746546
O        0.00000000       5.00000000       5.00000000       0.00000000       0.00000000       0.00000000       0.05052614
Mg       5.00000000       0.00000000       0.00000000       0.00000000       0.00000000       0.00000000       0.01433118
O        5.00000000       0.00000000       0.00000000       0.00000000       0.00000000       0.00000000       0.06193656
Mg       5.00000000       0.00000000       5.00000000       0.00000000       0.00000000       0.00000000       0.02105443
O        5.00000000       0.00000000       5.00000000       0.00000000       0.00000000       0.00000000       0.04073886
Mg       5.00000000       5.00000000       0.00000000       0.00000000       0.00000000       0.00000000       0.06417155
O        5.00000000       5.00000000       0.00000000       0.00000000       0.00000000       0.00000000       0.03320384
Mg       5.00000000       5.00000000       5.00000000       0.00000000       0.00000000       0.00000000       0.06963626
O        5.00000000       5.00000000       5.00000000       0.00000000       0.00000000       0.00000000       0.04594352
16
Lattice="10.0 0.0 0.0 0.0 10.0 0.0 0.0 0.0 10.0" Properties=species:S:1:pos:R:3:forces:R:3:c_gamma:R:1 energy=-160.0 pbc="T T T"
Mg       0.00000000       0.00000000       0.00000000       0.00000000       0.00000000       0.00000000       0.01509236
O        0.00000000       0.00000000       0.00000000       0.00000000       0.00000000       0.00000000       0.09219315
Mg       0.00000000       0.00000000       5.00000000       0.00000000       0.00000000       0.00000000       0.09812334
O        0.00000000       0.00000000       5.00000000       0.00000000       0.00000000       0.00000000       0.04774221
Mg       0.00000000       5.00000000       0.00000000       0.00000000       0.00000000       0.00000000       0.09981642
O        0.00000000       5.00000000       0.00000000       0.00000000       0.00000000       0.00000000       0.09792222
Mg       0.00000000       5.00000000       5.00000000       0.00000000       0.00000000       0.00000000       0.09955282
O        0.00000000       5.00000000       5.00000000       0.00000000       0.00000000       0.00000000       0.01409751
Mg       5.00000000       0.00000000       0.00000000       0.00000000       0.00000000       0.00000000       0.03967975
O        5.00000000       0.00000000       0.00000000       0.00000000       0.00000000       0.00000000       0.04085045
Mg       5.00000000       0.00000000       5.00000000       0.00000000       0.00000000       0.00000000       0.07603213
O        5.00000000       0.00000000       5.00000000       0.00000000       0.00000000       0.00000000       0.04291747
Mg       5.00000000       5.00000000       0.00000000       0.00000000       0.00000000       0.00000000       0.09682514
O        5.00000000       5.00000000       0.00000000       0.00000000       0.00000000       0.00000000       0.06861340
Mg       5.00000000       5.00000000       5.00000000       0.00000000       0.00000000       0.00000000       0.02980032
O        5.00000000       5.00000000       5.00000000       0.00000000       0.00000000       0.00000000       0.06344990
16
Lattice="10.0 0.0 0.0 0.0 10.0 0.0 0.0 0.0 10.0" Properties=species:S:1:pos:R:3:forces:R:3:c_gamma:R:1 energy=-160.0 pbc="T T T"
Mg       0.00000000       0.00000000       0.00000000       0.00000000       0.00000000       0.00000000       0.02675236
O        0.00000000       0.00000000       0.00000000       0.00000000       0.00000000       0.00000000       0.02502550
Mg       0.00000000       0.00000000       5.00000000       0.00000000       0.00000000       0.00000000       0.09234798
O        0.00000000       0.00000000       5.00000000       0.00000000       0.00000000       0.00000000       0.07510736
Mg       0.00000000       5.00000000       0.00000000       0.00000000       0.00000000       0.00000000       0.02698331
O        0.00000000       5.00000000       0.00000000       0.00000000       0.00000000       0.00000000       0.04264607
Mg       0.00000000       5.00000000       5.00000000       0.00000000       0.00000000       0.00000000       0.02785122
O        0.00000000       5.00000000       5.00000000       0.00000000       0.00000000       0.00000000       0.06492011
Mg       5.00000000       0.00000000       0.00000000       0.00000000       0.00000000       0.00000000       0.08913082
O        5.00000000       0.00000000       0.00000000       0.00000000       0.00000000       0.00000000       0.05870054
Mg       5.00000000       0.00000000       5.00000000       0.00000000       0.00000000       0.00000000       0.06135486
O        5.00000000       0.00000000       5.00000000       0.00000000       0.00000000       0.00000000       0.07733597
Mg       5.00000000       5.00000000       0.00000000       0.00000000       0.00000000       0.00000000       0.02884333
O        5.00000000       5.00000000       0.00000000       0.00000000       0.00000000       0.00000000       0.02849395
Mg       5.00000000       5.00000000       5.00000000       0.00000000       0.00000000       0.00000000       0.01151457
O        5.00000000       5.00000000       5.00000000       0.00000000       0.00000000       0.00000000       0.01287952
16
Lattice="10.0 0.0 0.0 0.0 10.0 0.0 0.0 0.0 10.0" Properties=species:S:1:pos:R:3:forces:R:3:c_gamma:R:1 energy=-160.0 pbc="T T T"
Mg       0.00000000       0.00000000       0.00000000       0.00000000       0.00000000       0.00000000       0.08714243
O        0.00000000       0.00000000       0.00000000       0.00000000       0.00000000       0.00000000       0.06639600
Mg       0.00000000       0.00000000       5.00000000       0.00000000       0.00000000       0.00000000       0.03332036
O        0.00000000       0.00000000       5.00000000       0.00000000       0.00000000       0.00000000       0.05455038
Mg       0.00000000       5.00000000       0.00000000       0.00000000       0.00000000       0.00000000       0.01911194
O        0.00000000       5.00000000       0.00000000       0.00000000       0.00000000       0.00000000       0.04476839
Mg       0.00000000       5.00000000       5.00000000       0.00000000       0.00000000       0.00000000       0.01424215
O        0.00000000       5.00000000       5.00000000       0.00000000       0.00000000       0.00000000       0.08035813
Mg       5.00000000       0.00000000       0.00000000       0.00000000       0.00000000       0.00000000       0.09994895
O        5.00000000       0.00000000       0.00000000       0.00000000       0.00000000       0.00000000       0.08074068
Mg       5.00000000       0.00000000       5.00000000       0.00000000       0.00000000       0.00000000       0.08152536
O        5.00000000       0.00000000       5.00000000       0.00000000       0.00000000       0.00000000       0.09566231
Mg       5.00000000       5.00000000       0.00000000       0.00000000       0.00000000       0.00000000       0.06026113
O        5.00000000       5.00000000       0.00000000       0.00000000       0.00000000       0.00000000       0.09935094
Mg       5.00000000       5.00000000       5.00000000       0.00000000       0.00000000       0.00000000       0.02933503
O        5.00000000       5.00000000       5.00000000       0.00000000       0.00000000       0.00000000       0.05797051
16
Lattice="10.0 0.0 0.0 0.0 10.0 0.0 0.0 0.0 10.0" Properties=species:S:1:pos:R:3:forces:R:3:c_gamma:R:1 energy=-160.0 pbc="T T T"
Mg       0.00000000       0.00000000       0.00000000       0.00000000       0.00000000       0.00000000       0.03142964
O        0.00000000       0.00000000       0.00000000       0.00000000       0.00000000       0.00000000       0.08099957
Mg       0.00000000       0.00000000       5.00000000       0.00000000       0.00000000       0.00000000       0.03911104
O        0.00000000       0.00000000       5.00000000       0.00000000       0.00000000       0.00000000       0.08439033
Mg       0.00000000       5.00000000       0.00000000       0.00000000       0.00000000       0.00000000       0.07334270
O        0.00000000       5.00000000       0.00000000       0.00000000       0.00000000       0.00000000       0.05105853
Mg       0.00000000       5.00000000       5.00000000       0.00000000       0.00000000       0.00000000       0.08211626
O        0.00000000       5.00000000       5.00000000       0.00000000       0.00000000       0.00000000       0.08399248
Mg       5.00000000       0.00000000       0.00000000       0.00000000       0.00000000       0.00000000       0.07938122
O        5.00000000       0.00000000       0.00000000       0.00000000       0.00000000       0.00000000       0.02267095
Mg       5.00000000       0.00000000       5.00000000       0.00000000       0.00000000       0.00000000       0.09807496
O        5.00000000       0.00000000       5.00000000       0.00000000       0.00000000       0.00000000       0.06552224
Mg       5.00000000       5.00000000       0.00000000       0.00000000       0.00000000       0.00000000       0.07545903
O        5.00000000       5.00000000       0.00000000       0.00000000       0.00000000       0.00000000       0.05246536
Mg       5.00000000       5.00000000       5.00000000       0.00000000       0.00000000       0.00000000       0.05583861
O        5.00000000       5.00000000       5.00000000       0.00000000       0.00000000       0.00000000       0.05044393
16
Lattice="10.0 0.0 0.0 0.0 10.0 0.0 0.0 0.0 10.0" Properties=species:S:1:pos:R:3:forces:R:3:c_gamma:R:1 energy=-160.0 pbc="T T T"
Mg       0.00000000       0.00000000       0.00000000       0.00000000       0.00000000       0.00000000       0.04030414
O        0.00000000       0.00000000       0.00000000       0.00000000       0.00000000       0.00000000       0.02196085
Mg       0.00000000       0.00000000       5.00000000       0.00000000       0.00000000       0.00000000       0.06319022
O        0.00000000       0.00000000       5.00000000       0.00000000       0.00000000       0.00000000       0.08542813
Mg       0.00000000       5.00000000       0.00000000       0.00000000       0.00000000       0.00000000       0.01052772
O        0.00000000       5.00000000       0.00000000       0.00000000       0.00000000       0.00000000       0.08429180
Mg       0.00000000       5.00000000       5.00000000       0.00000000       0.00000000       0.00000000       0.01714463
O        0.00000000       5.00000000       5.00000000       0.00000000       0.00000000       0.00000000       0.01901172
Mg       5.00000000       0.00000000       0.00000000       0.00000000       0.00000000       0.00000000       0.06006236
O        5.00000000       0.00000000       0.00000000       0.00000000       0.00000000       0.00000000       0.03313665
Mg       5.00000000       0.00000000       5.00000000       0.00000000       0.00000000       0.00000000       0.06606887
O        5.00000000       0.00000000       5.00000000       0.00000000       0.00000000       0.00000000       0.08781227
Mg       5.00000000       5.00000000       0.00000000       0.00000000       0.00000000       0.00000000       0.05250432
O        5.00000000       5.00000000       0.00000000       0.00000000       0.00000000       0.00000000       0.04931884
Mg       5.00000000       5.00000000       5.00000000       0.00000000       0.00000000       0.00000000       0.09133086
O        5.00000000       5.00000000       5.00000000       0.00000000       0.00000000       0.00000000       0.05703517
16
Lattice="10.0 0.0 0.0 0.0 10.0 0.0 0.0 0.0 10.0" Properties=species:S:1:pos:R:3:forces:R:3:c_gamma:R:1 energy=-160.0 pbc="T T T"
Mg       0.00000000       0.00000000       0.00000000       0.00000000       0.00000000       0.00000000       0.01706207
O        0.00000000       0.00000000       0.00000000       0.00000000       0.00000000       0.00000000       0.09711265
Mg       0.00000000       0.00000000       5.00000000       0.00000000       0.00000000       0.00000000       0.02996699
O        0.00000000       0.00000000       5.00000000       0.00000000       0.00000000       0.00000000       0.08438315
Mg       0.00000000       5.00000000       0.00000000       0.00000000       0.00000000       0.00000000       0.04512959
O        0.00000000       5.00000000       0.00000000       0.00000000       0.00000000       0.00000000       0.04978225
Mg       0.00000000       5.00000000       5.00000000       0.00000000       0.00000000       0.00000000       0.09829236
O        0.00000000       5.00000000       5.00000000       0.00000000       0.00000000       0.00000000       0.08211023
Mg       5.00000000       0.00000000       0.00000000       0.00000000       0.00000000       0.00000000       0.05451206
O        5.00000000       0.00000000       0.00000000       0.00000000       0.00000000       0.00000000       0.04209397
Mg       5.00000000       0.00000000       5.00000000       0.00000000       0.00000000       0.00000000       0.06872521
O        5.00000000       0.00000000       5.00000000       0.00000000       0.00000000       0.00000000       0.07722612
Mg       5.00000000       5.00000000       0.00000000       0.00000000       0.00000000       0.00000000       0.05839120
O        5.00000000       5.00000000       0.00000000       0.00000000       0.00000000       0.00000000       0.02560968
Mg       5.00000000       5.00000000       5.00000000       0.00000000       0.00000000       0.00000000       0.04597507
O        5.00000000       5.00000000       5.00000000       0.00000000       0.00000000       0.00000000       0.01298454
16
Lattice="10.0 0.0 0.0 0.0 10.0 0.0 0.0 0.0 10.0" Properties=species:S:1:pos:R:3:forces:R:3:c_gamma:R:1 energy=-160.0 pbc="T T T"
Mg       0.00000000       0.00000000       0.00000000       0.00000000       0.00000000       0.00000000       0.09772066
O        0.00000000       0.00000000       0.00000000       0.00000000       0.00000000       0.00000000       0.01687528
Mg       0.00000000       0.00000000       5.00000000       0.00000000       0.00000000       0.00000000       0.05044641
O        0.00000000       0.00000000       5.00000000       0.00000000       0.00000000       0.00000000       0.06230698
Mg       0.00000000       5.00000000       0.00000000       0.00000000       0.00000000       0.00000000       0.07910039
O        0.00000000       5.00000000       0.00000000       0.00000000       0.00000000       0.00000000       0.06397209
Mg       0.00000000       5.00000000       5.00000000       0.00000000       0.00000000       0.00000000       0.07481178
O        0.00000000       5.00000000       5.00000000       0.00000000       0.00000000       0.00000000       0.06394989
Mg       5.00000000       0.00000000       0.00000000       0.00000000       0.00000000       0.00000000       0.06032652
O        5.00000000       0.00000000       0.00000000       0.00000000       0.00000000       0.00000000       0.08247260
Mg       5.00000000       0.00000000       5.00000000       0.00000000       0.00000000       0.00000000       0.05841059
O        5.00000000       0.00000000       5.00000000       0.00000000       0.00000000       0.00000000       0.03938853
Mg       5.00000000       5.00000000       0.00000000       0.00000000       0.00000000       0.00000000       0.04064305
O        5.00000000       5.00000000       0.00000000       0.00000000       0.00000000       0.00000000       0.09288008
Mg       5.00000000       5.00000000       5.00000000       0.00000000       0.00000000       0.00000000       0.02765901
O        5.00000000       5.00000000       5.00000000       0.00000000       0.00000000       0.00000000       0.02066685
16
Lattice="10.0 0.0 0.0 0.0 10.0 0.0 0.0 0.0 10.0" Properties=species:S:1:pos:R:3:forces:R:3:c_gamma:R:1 energy=-160.0 pbc="T T T"
Mg       0.00000000       0.00000000       0.00000000       0.00000000       0.00000000       0.00000000       0.05701629
O        0.00000000       0.00000000       0.00000000       0.00000000       0.00000000       0.00000000       0.02812388
Mg       0.00000000       0.00000000       5.00000000       0.00000000       0.00000000       0.00000000       0.02315828
O        0.00000000       0.00000000       5.00000000       0.00000000       0.00000000       0.00000000       0.03546039
Mg       0.00000000       5.00000000       0.00000000       0.00000000       0.00000000       0.00000000       0.01213232
O        0.00000000       5.00000000       0.00000000       0.00000000       0.00000000       0.00000000       0.04927852
Mg       0.00000000       5.00000000       5.00000000       0.00000000       0.00000000       0.00000000       0.09653388
O        0.00000000       5.00000000       5.00000000       0.00000000       0.00000000       0.00000000       0.09081905
Mg       5.00000000       0.00000000       0.00000000       0.00000000       0.00000000       0.00000000       0.09250392
O        5.00000000       0.00000000       0.00000000       0.00000000       0.00000000       0.00000000       0.03787734
Mg       5.00000000       0.00000000       5.00000000       0.00000000       0.00000000       0.00000000       0.06518055
O        5.00000000       0.00000000       5.00000000       0.00000000       0.00000000       0.00000000       0.06573115
Mg       5.00000000       5.00000000       0.00000000       0.00000000       0.00000000       0.00000000       0.04229681
O        5.00000000       5.00000000       0.00000000       0.00000000       0.00000000       0.00000000       0.03493662
Mg       5.00000000       5.00000000       5.00000000       0.00000000       0.00000000       0.00000000       0.04715525
O        5.00000000       5.00000000       5.00000000       0.00000000       0.00000000       0.00000000       0.07283935
16
Lattice="10.0 0.0 0.0 0.0 10.0 0.0 0.0 0.0 10.0" Properties=species:S:1:pos:R:3:forces:R:3:c_gamma:R:1 energy=-160.0 pbc="T T T"
Mg       0.00000000       0.00000000       0.00000000       0.00000000       0.00000000       0.00000000       0.02260863
O        0.00000000       0.00000000       0.00000000       0.00000000       0.00000000       0.00000000       0.06204067
Mg       0.00000000       0.00000000       5.00000000       0.00000000       0.00000000       0.00000000       0.03582244
O        0.00000000       0.00000000       5.00000000       0.00000000       0.00000000       0.00000000       0.09332703
Mg       0.00000000       5.00000000       0.00000000       0.00000000       0.00000000       0.00000000       0.08611835
O        0.00000000       5.00000000       0.00000000       0.00000000       0.00000000       0.00000000       0.03859138
Mg       0.00000000       5.00000000       5.00000000       0.00000000       0.00000000       0.00000000       0.01118334
O        0.00000000       5.00000000       5.00000000       0.00000000       0.00000000       0.00000000       0.04225072
Mg       5.00000000       0.00000000       0.00000000       0.00000000       0.00000000       0.00000000       0.08887159
O        5.00000000       0.00000000       0.00000000       0.00000000       0.00000000       0.00000000       0.04043960
Mg       5.00000000       0.00000000       5.00000000       0.00000000       0.00000000       0.00000000       0.03360758
O        5.00000000       0.00000000       5.00000000       0.00000000       0.00000000       0.00000000       0.01665136
Mg       5.00000000       5.00000000       0.00000000       0.00000000       0.00000000       0.00000000       0.06085270
O        5.00000000       5.00000000       0.00000000       0.00000000       0.00000000       0.00000000       0.04463078
Mg       5.00000000       5.00000000       5.00000000       0.00000000       0.00000000       0.00000000       0.04732944
O        5.00000000       5.00000000       5.00000000       0.00000000       0.00000000       0.00000000       0.05670069
16
Lattice="10.0 0.0 0.0 0.0 10.0 0.0 0.0 0.0 10.0" Properties=species:S:1:pos:R:3:forces:R:3:c_gamma:R:1 energy=-160.0 pbc="T T T"
Mg       0.00000000       0.00000000       0.00000000       0.00000000       0.00000000       0.00000000       0.05556123
O        0.00000000       0.00000000       0.00000000       0.00000000       0.00000000       0.00000000       0.05660531
Mg       0.00000000       0.00000000       5.00000000       0.00000000       0.00000000       0.00000000       0.05910378
O        0.00000000       0.00000000       5.00000000       0.00000000       0.00000000       0.00000000       0.04628725
Mg       0.00000000       5.00000000       0.00000000       0.00000000       0.00000000       0.00000000       0.03248203
O        0.00000000       5.00000000       0.00000000       0.00000000       0.00000000       0.00000000       0.05786261
Mg       0.00000000       5.00000000       5.00000000       0.00000000       0.00000000       0.00000000       0.02947928
O        0.00000000       5.00000000       5.00000000       0.00000000       0.00000000       0.00000000       0.01970289
Mg       5.00000000       0.00000000       0.00000000       0.00000000       0.00000000       0.00000000       0.04534568
O        5.00000000       0.00000000       0.00000000       0.00000000       0.00000000       0.00000000       0.09475369
Mg       5.00000000       0.00000000       5.00000000       0.00000000       0.00000000       0.00000000       0.06559590
O        5.00000000       0.00000000       5.00000000       0.00000000       0.00000000       0.00000000       0.02748047
Mg       5.00000000       5.00000000       0.00000000       0.00000000       0.00000000       0.00000000       0.03857947
O        5.00000000       5.00000000       0.00000000       0.00000000       0.00000000       0.00000000       0.07105375
Mg       5.00000000       5.00000000       5.00000000       0.00000000       0.00000000       0.00000000       0.04412936
O        5.00000000       5.00000000       5.00000000       0.00000000       0.00000000       0.00000000       0.01019826
16
Lattice="10.0 0.0 0.0 0.0 10.0 0.0 0.0 0.0 10.0" Properties=species:S:1:pos:R:3:forces:R:3:c_gamma:R:1 energy=-160.0 pbc="T T T"
Mg       0.00000000       0.00000000       0.00000000       0.00000000       0.00000000       0.00000000       0.09518660
O        0.00000000       0.00000000       0.00000000       0.00000000       0.00000000       0.00000000       0.08594338
Mg       0.00000000       0.00000000       5.00000000       0.00000000       0.00000000       0.00000000       0.09535567
O        0.00000000       0.00000000       5.00000000       0.00000000       0.00000000       0.00000000       0.04371311
Mg       0.00000000       5.00000000       0.00000000       0.00000000       0.00000000       0.00000000       0.06052944
O        0.00000000       5.00000000       0.00000000       0.00000000       0.00000000       0.00000000       0.08614176
Mg       0.00000000       5.00000000       5.00000000       0.00000000       0.00000000       0.00000000       0.01349385
O        0.00000000       5.00000000       5.00000000       0.00000000       0.00000000       0.00000000       0.07906900
Mg       5.00000000       0.00000000       0.00000000       0.00000000       0.00000000       0.00000000       0.09370088
O        5.00000000       0.00000000       0.00000000       0.00000000       0.00000000       0.00000000       0.01390593
Mg       5.00000000       0.00000000       5.00000000       0.00000000       0.00000000       0.00000000       0.08462078
O        5.00000000       0.00000000       5.00000000       0.00000000       0.00000000       0.00000000       0.06873646
Mg       5.00000000       5.00000000       0.00000000       0.00000000       0.00000000       0.00000000       0.03543250
O        5.00000000       5.00000000       0.00000000       0.00000000       0.00000000       0.00000000       0.05986494
Mg       5.00000000       5.00000000       5.00000000       0.00000000       0.00000000       0.00000000       0.08353236
O        5.00000000       5.00000000       5.00000000       0.00000000       0.00000000       0.00000000       0.07064970
16
Lattice="10.0 0.0 0.0 0.0 10.0 0.0 0.0 0.0 10.0" Properties=species:S:1:pos:R:3:forces:R:3:c_gamma:R:1 energy=-160.0 pbc="T T T"
Mg       0.00000000       0.00000000       0.00000000       0.00000000       0.00000000       0.00000000       0.06593319
O        0.00000000       0.00000000       0.00000000       0.00000000       0.00000000       0.00000000       0.04487868
Mg       0.00000000       0.00000000       5.00000000       0.00000000       0.00000000       0.00000000       0.07614360
O        0.00000000       0.00000000       5.00000000       0.00000000       0.00000000       0.00000000       0.03168793
Mg       0.00000000       5.00000000       0.00000000       0.00000000       0.00000000       0.00000000       0.05456493
O        0.00000000       5.00000000       0.00000000       0.00000000       0.00000000       0.00000000       0.08977177
Mg       0.00000000       5.00000000       5.00000000       0.00000000       0.00000000       0.00000000       0.08417486
O        0.00000000       5.00000000       5.00000000       0.00000000       0.00000000       0.00000000       0.04770671
Mg       5.00000000       0.00000000       0.00000000       0.00000000       0.00000000       0.00000000       0.03652537
O        5.00000000       0.00000000       0.00000000       0.00000000       0.00000000       0.00000000       0.09587675
Mg       5.00000000       0.00000000       5.00000000       0.00000000       0.00000000       0.00000000       0.03021545
O        5.00000000       0.00000000       5.00000000       0.00000000       0.00000000       0.00000000       0.07401916
Mg       5.00000000       5.00000000       0.00000000       0.00000000       0.00000000       0.00000000       0.09111923
O        5.00000000       5.00000000       0.00000000       0.00000000       0.00000000       0.00000000       0.05138848
Mg       5.00000000       5.00000000       5.00000000       0.00000000       0.00000000       0.00000000       0.08003500
O        5.00000000       5.00000000       5.00000000       0.00000000       0.00000000       0.00000000       0.07711582
