1
Lattice="5.0 0.0 0.0 0.0 5.0 0.0 0.0 0.0 5.0" Properties=species:S:1:pos:R:3:force_weight:R:1 energy=-5.0 pbc="T T T"
Fe       2.50000000       2.50000000       2.50000000       1.00000000
1
Lattice="5.0 0.0 0.0 0.0 5.0 0.0 0.0 0.0 5.0" Properties=species:S:1:pos:R:3:force_weight:R:1 energy=-5.0 pbc="T T T"
Fe       2.50000000       2.50000000       2.50000000       1.00000000
1
Lattice="5.0 0.0 0.0 0.0 5.0 0.0 0.0 0.0 5.0" Properties=species:S:1:pos:R:3:force_weight:R:1 energy=-5.0 pbc="T T T"
Fe       2.50000000       2.50000000       2.50000000       1.00000000
1
Lattice="5.0 0.0 0.0 0.0 5.0 0.0 0.0 0.0 5.0" Properties=species:S:1:pos:R:3:force_weight:R:1 energy=-5.0 pbc="T T T"
Fe       2.50000000       2.50000000       2.50000000       1.00000000
1
Lattice="5.0 0.0 0.0 0.0 5.0 0.0 0.0 0.0 5.0" Properties=species:S:1:pos:R:3:force_weight:R:1 energy=-5.0 pbc="T T T"
Fe       2.50000000       2.50000000       2.50000000       1.00000000
1
Lattice="5.0 0.0 0.0 0.0 5.0 0.0 0.0 0.0 5.0" Properties=species:S:1:pos:R:3:force_weight:R:1 energy=-5.0 pbc="T T T"
Fe       2.50000000       2.50000000       2.50000000       1.00000000
1
Lattice="5.0 0.0 0.0 0.0 5.0 0.0 0.0 0.0 5.0" Properties=species:S:1:pos:R:3:force_weight:R:1 energy=-5.0 pbc="T T T"
Fe       2.50000000       2.50000000       2.50000000       1.00000000
1
Lattice="5.0 0.0 0.0 0.0 5.0 0.0 0.0 0.0 5.0" Properties=species:S:1:pos:R:3:force_weight:R:1 energy=-5.0 pbc="T T T"
Fe       2.50000000       2.50000000       2.50000000       1.00000000
1
Lattice="5.0 0.0 0.0 0.0 5.0 0.0 0.0 0.0 5.0" Properties=species:S:1:pos:R:3:force_weight:R:1 energy=-5.0 pbc="T T T"
Fe       2.50000000       2.50000000       2.50000000       1.00000000
1
Lattice="5.0 0.0 0.0 0.0 5.0 0.0 0.0 0.0 5.0" Properties=species:S:1:pos:R:3:force_weight:R:1 energy=-5.0 pbc="T T T"
Fe       2.50000000       2.50000000       2.50000000       1.00000000
1
Lattice="5.0 0.0 0.0 0.0 5.0 0.0 0.0 0.0 5.0" Properties=species:S:1:pos:R:3:force_weight:R:1 energy=-5.0 pbc="T T T"
Fe       2.50000000       2.50000000       2.50000000       1.00000000
1
Lattice="5.0 0.0 0.0 0.0 5.0 0.0 0.0 0.0 5.0" Properties=species:S:1:pos:R:3:force_weight:R:1 energy=-5.0 pbc="T T T"
Fe       2.50000000       2.50000000       2.50000000       1.00000000
1
Lattice="5.0 0.0 0.0 0.0 5.0 0.0 0.0 0.0 5.0" Properties=species:S:1:pos:R:3:force_weight:R:1 energy=-5.0 pbc="T T T"
Fe       2.50000000       2.50000000       2.50000000       1.00000000
1
Lattice="5.0 0.0 0.0 0.0 5.0 0.0 0.0 0.0 5.0" Properties=species:S:1:pos:R:3:force_weight:R:1 energy=-5.0 pbc="T T T"
Fe       2.50000000       2.50000000       2.50000000       1.00000000
1
Lattice="5.0 0.0 0.0 0.0 5.0 0.0 0.0 0.0 5.0" Properties=species:S:1:pos:R:3:force_weight:R:1 energy=-5.0 pbc="T T T"
Fe       2.50000000       2.50000000       2.50000000       1.00000000
1
Lattice="5.0 0.0 0.0 0.0 5.0 0.0 0.0 0.0 5.0" Properties=species:S:1:pos:R:3:force_weight:R:1 energy=-5.0 pbc="T T T"
Fe       2.50000000       2.50000000       2.50000000       1.00000000
1
Lattice="5.0 0.0 0.0 0.0 5.0 0.0 0.0 0.0 5.0" Properties=species:S:1:pos:R:3:force_weight:R:1 energy=-5.0 pbc="T T T"
Fe       2.50000000       2.50000000       2.50000000       1.00000000
1
Lattice="5.0 0.0 0.0 0.0 5.0 0.0 0.0 0.0 5.0" Properties=species:S:1:pos:R:3:force_weight:R:1 energy=-5.0 pbc="T T T"
Fe       2.50000000       2.50000000       2.50000000       1.00000000
1
Lattice="5.0 0.0 0.0 0.0 5.0 0.0 0.0 0.0 5.0" Properties=species:S:1:pos:R:3:force_weight:R:1 energy=-5.0 pbc="T T T"
Fe       2.50000000       2.50000000       2.50000000       1.00000000
1
Lattice="5.0 0.0 0.0 0.0 5.0 0.0 0.0 0.0 5.0" Properties=species:S:1:pos:R:3:force_weight:R:1 energy=-5.0 pbc="T T T"
Fe       2.50000000       2.50000000       2.50000000       1.00000000
1
Lattice="5.0 0.0 0.0 0.0 5.0 0.0 0.0 0.0 5.0" Properties=species:S:1:pos:R:3:force_weight:R:1 energy=-5.0 pbc="T T T"
Fe       2.50000000       2.50000000       2.50000000       1.00000000
1
Lattice="5.0 0.0 0.0 0.0 5.0 0.0 0.0 0.0 5.0" Properties=species:S:1:pos:R:3:force_weight:R:1 energy=-5.0 pbc="T T T"
Fe       2.50000000       2.50000000       2.50000000       1.00000000
1
Lattice="5.0 0.0 0.0 0.0 5.0 0.0 0.0 0.0 5.0" Properties=species:S:1:pos:R:3:force_weight:R:1 energy=-5.0 pbc="T T T"
Fe       2.50000000       2.50000000       2.50000000       1.00000000
1
Lattice="5.0 0.0 0.0 0.0 5.0 0.0 0.0 0.0 5.0" Properties=species:S:1:pos:R:3:force_weight:R:1 energy=-5.0 pbc="T T T"
Fe       2.50000000       2.50000000       2.50000000       1.00000000
1
Lattice="5.0 0.0 0.0 0.0 5.0 0.0 0.0 0.0 5.0" Properties=species:S:1:pos:R:3:force_weight:R:1 energy=-5.0 pbc="T T T"
Fe       2.50000000       2.50000000       2.50000000       1.00000000
1
Lattice="5.0 0.0 0.0 0.0 5.0 0.0 0.0 0.0 5.0" Properties=species:S:1:pos:R:3:force_weight:R:1 energy=-5.0 pbc="T T T"
Fe       2.50000000       2.50000000       2.50000000       1.00000000
1
Lattice="5.0 0.0 0.0 0.0 5.0 0.0 0.0 0.0 5.0" Properties=species:S:1:pos:R:3:force_weight:R:1 energy=-5.0 pbc="T T T"
Fe       2.50000000       2.50000000       2.50000000       1.00000000
1
Lattice="5.0 0.0 0.0 0.0 5.0 0.0 0.0 0.0 5.0" Properties=species:S:1:pos:R:3:force_weight:R:1 energy=-5.0 pbc="T T T"
Fe       2.50000000       2.50000000       2.50000000       1.00000000
1
Lattice="5.0 0.0 0.0 0.0 5.0 0.0 0.0 0.0 5.0" Properties=species:S:1:pos:R:3:force_weight:R:1 energy=-5.0 pbc="T T T"
Fe       2.50000000       2.50000000       2.50000000       1.00000000
1
Lattice="5.0 0.0 0.0 0.0 5.0 0.0 0.0 0.0 5.0" Properties=species:S:1:pos:R:3:force_weight:R:1 energy=-5.0 pbc="T T T"
Fe       2.50000000       2.50000000       2.50000000       1.00000000
1
Lattice="5.0 0.0 0.0 0.0 5.0 0.0 0.0 0.0 5.0" Properties=species:S:1:pos:R:3:force_weight:R:1 energy=-5.0 pbc="T T T"
Fe       2.50000000       2.50000000       2.50000000       1.00000000
1
Lattice="5.0 0.0 0.0 0.0 5.0 0.0 0.0 0.0 5.0" Properties=species:S:1:pos:R:3:force_weight:R:1 energy=-5.0 pbc="T T T"
Fe       2.50000000       2.50000000       2.50000000       1.00000000
1
Lattice="5.0 0.0 0.0 0.0 5.0 0.0 0.0 0.0 5.0" Properties=species:S:1:pos:R:3:force_weight:R:1 energy=-5.0 pbc="T T T"
Fe       2.50000000       2.50000000       2.50000000       1.00000000
1
Lattice="5.0 0.0 0.0 0.0 5.0 0.0 0.0 0.0 5.0" Properties=species:S:1:pos:R:3:force_weight:R:1 energy=-5.0 pbc="T T T"
Fe       2.50000000       2.50000000       2.50000000       1.00000000
1
Lattice="5.0 0.0 0.0 0.0 5.0 0.0 0.0 0.0 5.0" Properties=species:S:1:pos:R:3:force_weight:R:1 energy=-5.0 pbc="T T T"
Fe       2.50000000       2.50000000       2.50000000       1.00000000
1
Lattice="5.0 0.0 0.0 0.0 5.0 0.0 0.0 0.0 5.0" Properties=species:S:1:pos:R:3:force_weight:R:1 energy=-5.0 pbc="T T T"
Fe       2.50000000       2.50000000       2.50000000       1.00000000
1
Lattice="5.0 0.0 0.0 0.0 5.0 0.0 0.0 0.0 5.0" Properties=species:S:1:pos:R:3:force_weight:R:1 energy=-5.0 pbc="T T T"
Fe       2.50000000       2.50000000       2.50000000       1.00000000
1
Lattice="5.0 0.0 0.0 0.0 5.0 0.0 0.0 0.0 5.0" Properties=species:S:1:pos:R:3:force_weight:R:1 energy=-5.0 pbc="T T T"
Fe       2.50000000       2.50000000       2.50000000       1.00000000
1
Lattice="5.0 0.0 0.0 0.0 5.0 0.0 0.0 0.0 5.0" Properties=species:S:1:pos:R:3:force_weight:R:1 energy=-5.0 pbc="T T T"
Fe       2.50000000       2.50000000       2.50000000       1.00000000
1
Lattice="5.0 0.0 0.0 0.0 5.0 0.0 0.0 0.0 5.0" Properties=species:S:1:pos:R:3:force_weight:R:1 energy=-5.0 pbc="T T T"
Fe       2.50000000       2.50000000       2.50000000       1.00000000
1
Lattice="5.0 0.0 0.0 0.0 5.0 0.0 0.0 0.0 5.0" Properties=species:S:1:pos:R:3:force_weight:R:1 energy=-5.0 pbc="T T T"
Fe       2.50000000       2.50000000       2.50000000       1.00000000
1
Lattice="5.0 0.0 0.0 0.0 5.0 0.0 0.0 0.0 5.0" Properties=species:S:1:pos:R:3:force_weight:R:1 energy=-5.0 pbc="T T T"
Fe       2.50000000       2.50000000       2.50000000       1.00000000
1
Lattice="5.0 0.0 0.0 0.0 5.0 0.0 0.0 0.0 5.0" Properties=species:S:1:pos:R:3:force_weight:R:1 energy=-5.0 pbc="T T T"
Fe       2.50000000       2.50000000       2.50000000       1.00000000
1
Lattice="5.0 0.0 0.0 0.0 5.0 0.0 0.0 0.0 5.0" Properties=species:S:1:pos:R:3:force_weight:R:1 energy=-5.0 pbc="T T T"
Fe       2.50000000       2.50000000       2.50000000       1.00000000
1
Lattice="5.0 0.0 0.0 0.0 5.0 0.0 0.0 0.0 5.0" Properties=species:S:1:pos:R:3:force_weight:R:1 energy=-5.0 pbc="T T T"
Fe       2.50000000       2.50000000       2.50000000       1.00000000
1
Lattice="5.0 0.0 0.0 0.0 5.0 0.0 0.0 0.0 5.0" Properties=species:S:1:pos:R:3:force_weight:R:1 energy=-5.0 pbc="T T T"
Fe       2.50000000       2.50000000       2.50000000       1.00000000
1
Lattice="5.0 0.0 0.0 0.0 5.0 0.0 0.0 0.0 5.0" Properties=species:S:1:pos:R:3:force_weight:R:1 energy=-5.0 pbc="T T T"
Fe       2.50000000       2.50000000       2.50000000       1.00000000
1
Lattice="5.0 0.0 0.0 0.0 5.0 0.0 0.0 0.0 5.0" Properties=species:S:1:pos:R:3:force_weight:R:1 energy=-5.0 pbc="T T T"
Fe       2.50000000       2.50000000       2.50000000       1.00000000
1
Lattice="5.0 0.0 0.0 0.0 5.0 0.0 0.0 0.0 5.0" Properties=species:S:1:pos:R:3:force_weight:R:1 energy=-5.0 pbc="T T T"
Fe       2.50000000       2.50000000       2.50000000       1.00000000
1
Lattice="5.0 0.0 0.0 0.0 5.0 0.0 0.0 0.0 5.0" Properties=species:S:1:pos:R:3:force_weight:R:1 energy=-5.0 pbc="T T T"
Fe       2.50000000       2.50000000       2.50000000       1.00000000
1
Lattice="5.0 0.0 0.0 0.0 5.0 0.0 0.0 0.0 5.0" Properties=species:S:1:pos:R:3:force_weight:R:1 energy=-5.0 pbc="T T T"
Fe       2.50000000       2.50000000       2.50000000       1.00000000
1
Lattice="5.0 0.0 0.0 0.0 5.0 0.0 0.0 0.0 5.0" Properties=species:S:1:pos:R:3:force_weight:R:1 energy=-5.0 pbc="T T T"
Fe       2.50000000       2.50000000       2.50000000       1.00000000
1
Lattice="5.0 0.0 0.0 0.0 5.0 0.0 0.0 0.0 5.0" Properties=species:S:1:pos:R:3:force_weight:R:1 energy=-5.0 pbc="T T T"
Fe       2.50000000       2.50000000       2.50000000       1.00000000
1
Lattice="5.0 0.0 0.0 0.0 5.0 0.0 0.0 0.0 5.0" Properties=species:S:1:pos:R:3:force_weight:R:1 energy=-5.0 pbc="T T T"
Fe       2.50000000       2.50000000       2.50000000       1.00000000
1
Lattice="5.0 0.0 0.0 0.0 5.0 0.0 0.0 0.0 5.0" Properties=species:S:1:pos:R:3:force_weight:R:1 energy=-5.0 pbc="T T T"
Fe       2.50000000       2.50000000       2.50000000       1.00000000
