16
Lattice="10.0 0.0 0.0 0.0 10.0 0.0 0.0 0.0 10.0" Properties=species:S:1:pos:R:3 pbc="T T T"
Mg       0.00000000       0.00000000       0.00000000
O        0.00000000       0.00000000       0.00000000
Mg       0.00000000       0.00000000       5.00000000
O        0.00000000       0.00000000       5.00000000
Mg       0.00000000       5.00000000       0.00000000
O        0.00000000       5.00000000       0.00000000
Mg       0.00000000       5.00000000       5.00000000
O        0.00000000       5.00000000       5.00000000
Mg       5.00000000       0.00000000       0.00000000
O        5.00000000       0.00000000       0.00000000
Mg       5.00000000       0.00000000       5.00000000
O        5.00000000       0.00000000       5.00000000
Mg       5.00000000       5.00000000       0.00000000
O        5.00000000       5.00000000       0.00000000
Mg       5.00000000       5.00000000       5.00000000
O        5.00000000       5.00000000       5.00000000
16
Lattice="10.0 0.0 0.0 0.0 10.0 0.0 0.0 0.0 10.0" Properties=species:S:1:pos:R:3 pbc="T T T"
Mg       0.00000000       0.00000000       0.00000000
O        0.00000000       0.00000000       0.00000000
Mg       0.00000000       0.00000000       5.00000000
O        0.00000000       0.00000000       5.00000000
Mg       0.00000000       5.00000000       0.00000000
O        0.00000000       5.00000000       0.00000000
Mg       0.00000000       5.00000000       5.00000000
O        0.00000000       5.00000000       5.00000000
Mg       5.00000000       0.00000000       0.00000000
O        5.00000000       0.00000000       0.00000000
Mg       5.00000000       0.00000000       5.00000000
O        5.00000000       0.00000000       5.00000000
Mg       5.00000000       5.00000000       0.00000000
O        5.00000000       5.00000000       0.00000000
Mg       5.00000000       5.00000000       5.00000000
O        5.00000000       5.00000000       5.00000000
16
Lattice="10.0 0.0 0.0 0.0 10.0 0.0 0.0 0.0 10.0" Properties=species:S:1:pos:R:3 pbc="T T T"
Mg       0.00000000       0.00000000       0.00000000
O        0.00000000       0.00000000       0.00000000
Mg       0.00000000       0.00000000       5.00000000
O        0.00000000       0.00000000       5.00000000
Mg       0.00000000       5.00000000       0.00000000
O        0.00000000       5.00000000       0.00000000
Mg       0.00000000       5.00000000       5.00000000
O        0.00000000       5.00000000       5.00000000
Mg       5.00000000       0.00000000       0.00000000
O        5.00000000       0.00000000       0.00000000
Mg       5.00000000       0.00000000       5.00000000
O        5.00000000       0.00000000       5.00000000
Mg       5.00000000       5.00000000       0.00000000
O        5.00000000       5.00000000       0.00000000
Mg       5.00000000       5.00000000       5.00000000
O        5.00000000       5.00000000       5.00000000
16
Lattice="10.0 0.0 0.0 0.0 10.0 0.0 0.0 0.0 10.0" Properties=species:S:1:pos:R:3 pbc="T T T"
Mg       0.00000000       0.00000000       0.00000000
O        0.00000000       0.00000000       0.00000000
Mg       0.00000000       0.00000000       5.00000000
O        0.00000000       0.00000000       5.00000000
Mg       0.00000000       5.00000000       0.00000000
O        0.00000000       5.00000000       0.00000000
Mg       0.00000000       5.00000000       5.00000000
O        0.00000000       5.00000000       5.00000000
Mg       5.00000000       0.00000000       0.00000000
O        5.00000000       0.00000000       0.00000000
Mg       5.00000000       0.00000000       5.00000000
O        5.00000000       0.00000000       5.00000000
Mg       5.00000000       5.00000000       0.00000000
O        5.00000000       5.00000000       0.00000000
Mg       5.00000000       5.00000000       5.00000000
O        5.00000000       5.00000000       5.00000000
16
Lattice="10.0 0.0 0.0 0.0 10.0 0.0 0.0 0.0 10.0" Properties=species:S:1:pos:R:3 pbc="T T T"
Mg       0.00000000       0.00000000       0.00000000
O        0.00000000       0.00000000       0.00000000
Mg       0.00000000       0.00000000       5.00000000
O        0.00000000       0.00000000       5.00000000
Mg       0.00000000       5.00000000       0.00000000
O        0.00000000       5.00000000       0.00000000
Mg       0.00000000       5.00000000       5.00000000
O        0.00000000       5.00000000       5.00000000
Mg       5.00000000       0.00000000       0.00000000
O        5.00000000       0.00000000       0.00000000
Mg       5.00000000       0.00000000       5.00000000
O        5.00000000       0.00000000       5.00000000
Mg       5.00000000       5.00000000       0.00000000
O        5.00000000       5.00000000       0.00000000
Mg       5.00000000       5.00000000       5.00000000
O        5.00000000       5.00000000       5.00000000
16
Lattice="10.0 0.0 0.0 0.0 10.0 0.0 0.0 0.0 10.0" Properties=species:S:1:pos:R:3 pbc="T T T"
Mg       0.00000000       0.00000000       0.00000000
O        0.00000000       0.00000000       0.00000000
Mg       0.00000000       0.00000000       5.00000000
O        0.00000000       0.00000000       5.00000000
Mg       0.00000000       5.00000000       0.00000000
O        0.00000000       5.00000000       0.00000000
Mg       0.00000000       5.00000000       5.00000000
O        0.00000000       5.00000000       5.00000000
Mg       5.00000000       0.00000000       0.00000000
O        5.00000000       0.00000000       0.00000000
Mg       5.00000000       0.00000000       5.00000000
O        5.00000000       0.00000000       5.00000000
Mg       5.00000000       5.00000000       0.00000000
O        5.00000000       5.00000000       0.00000000
Mg       5.00000000       5.00000000       5.00000000
O        5.00000000       5.00000000       5.00000000
16
Lattice="10.0 0.0 0.0 0.0 10.0 0.0 0.0 0.0 10.0" Properties=species:S:1:pos:R:3 pbc="T T T"
Mg       0.00000000       0.00000000       0.00000000
O        0.00000000       0.00000000       0.00000000
Mg       0.00000000       0.00000000       5.00000000
O        0.00000000       0.00000000       5.00000000
Mg       0.00000000       5.00000000       0.00000000
O        0.00000000       5.00000000       0.00000000
Mg       0.00000000       5.00000000       5.00000000
O        0.00000000       5.00000000       5.00000000
Mg       5.00000000       0.00000000       0.00000000
O        5.00000000       0.00000000       0.00000000
Mg       5.00000000       0.00000000       5.00000000
O        5.00000000       0.00000000       5.00000000
Mg       5.00000000       5.00000000       0.00000000
O        5.00000000       5.00000000       0.00000000
Mg       5.00000000       5.00000000       5.00000000
O        5.00000000       5.00000000       5.00000000
16
Lattice="10.0 0.0 0.0 0.0 10.0 0.0 0.0 0.0 10.0" Properties=species:S:1:pos:R:3 pbc="T T T"
Mg       0.00000000       0.00000000       0.00000000
O        0.00000000       0.00000000       0.00000000
Mg       0.00000000       0.00000000       5.00000000
O        0.00000000       0.00000000       5.00000000
Mg       0.00000000       5.00000000       0.00000000
O        0.00000000       5.00000000       0.00000000
Mg       0.00000000       5.00000000       5.00000000
O        0.00000000       5.00000000       5.00000000
Mg       5.00000000       0.00000000       0.00000000
O        5.00000000       0.00000000       0.00000000
Mg       5.00000000       0.00000000       5.00000000
O        5.00000000       0.00000000       5.00000000
Mg       5.00000000       5.00000000       0.00000000
O        5.00000000       5.00000000       0.00000000
Mg       5.00000000       5.00000000       5.00000000
O        5.00000000       5.00000000       5.00000000
16
Lattice="10.0 0.0 0.0 0.0 10.0 0.0 0.0 0.0 10.0" Properties=species:S:1:pos:R:3 pbc="T T T"
Mg       0.00000000       0.00000000       0.00000000
O        0.00000000       0.00000000       0.00000000
Mg       0.00000000       0.00000000       5.00000000
O        0.00000000       0.00000000       5.00000000
Mg       0.00000000       5.00000000       0.00000000
O        0.00000000       5.00000000       0.00000000
Mg       0.00000000       5.00000000       5.00000000
O        0.00000000       5.00000000       5.00000000
Mg       5.00000000       0.00000000       0.00000000
O        5.00000000       0.00000000       0.00000000
Mg       5.00000000       0.00000000       5.00000000
O        5.00000000       0.00000000       5.00000000
Mg       5.00000000       5.00000000       0.00000000
O        5.00000000       5.00000000       0.00000000
Mg       5.00000000       5.00000000       5.00000000
O        5.00000000       5.00000000       5.00000000
16
Lattice="10.0 0.0 0.0 0.0 10.0 0.0 0.0 0.0 10.0" Properties=species:S:1:pos:R:3 pbc="T T T"
Mg       0.00000000       0.00000000       0.00000000
O        0.00000000       0.00000000       0.00000000
Mg       0.00000000       0.00000000       5.00000000
O        0.00000000       0.00000000       5.00000000
Mg       0.00000000       5.00000000       0.00000000
O        0.00000000       5.00000000       0.00000000
Mg       0.00000000       5.00000000       5.00000000
O        0.00000000       5.00000000       5.00000000
Mg       5.00000000       0.00000000       0.00000000
O        5.00000000       0.00000000       0.00000000
Mg       5.00000000       0.00000000       5.00000000
O        5.00000000       0.00000000       5.00000000
Mg       5.00000000       5.00000000       0.00000000
O        5.00000000       5.00000000       0.00000000
Mg       5.00000000       5.00000000       5.00000000
O        5.00000000       5.00000000       5.00000000
16
Lattice="10.0 0.0 0.0 0.0 10.0 0.0 0.0 0.0 10.0" Properties=species:S:1:pos:R:3 pbc="T T T"
Mg       0.00000000       0.00000000       0.00000000
O        0.00000000       0.00000000       0.00000000
Mg       0.00000000       0.00000000       5.00000000
O        0.00000000       0.00000000       5.00000000
Mg       0.00000000       5.00000000       0.00000000
O        0.00000000       5.00000000       0.00000000
Mg       0.00000000       5.00000000       5.00000000
O        0.00000000       5.00000000       5.00000000
Mg       5.00000000       0.00000000       0.00000000
O        5.00000000       0.00000000       0.00000000
Mg       5.00000000       0.00000000       5.00000000
O        5.00000000       0.00000000       5.00000000
Mg       5.00000000       5.00000000       0.00000000
O        5.00000000       5.00000000       0.00000000
Mg       5.00000000       5.00000000       5.00000000
O        5.00000000       5.00000000       5.00000000
16
Lattice="10.0 0.0 0.0 0.0 10.0 0.0 0.0 0.0 10.0" Properties=species:S:1:pos:R:3 pbc="T T T"
Mg       0.00000000       0.00000000       0.00000000
O        0.00000000       0.00000000       0.00000000
Mg       0.00000000       0.00000000       5.00000000
O        0.00000000       0.00000000       5.00000000
Mg       0.00000000       5.00000000       0.00000000
O        0.00000000       5.00000000       0.00000000
Mg       0.00000000       5.00000000       5.00000000
O        0.00000000       5.00000000       5.00000000
Mg       5.00000000       0.00000000       0.00000000
O        5.00000000       0.00000000       0.00000000
Mg       5.00000000       0.00000000       5.00000000
O        5.00000000       0.00000000       5.00000000
Mg       5.00000000       5.00000000       0.00000000
O        5.00000000       5.00000000       0.00000000
Mg       5.00000000       5.00000000       5.00000000
O        5.00000000       5.00000000       5.00000000
16
Lattice="10.0 0.0 0.0 0.0 10.0 0.0 0.0 0.0 10.0" Properties=species:S:1:pos:R:3 pbc="T T T"
Mg       0.00000000       0.00000000       0.00000000
O        0.00000000       0.00000000       0.00000000
Mg       0.00000000       0.00000000       5.00000000
O        0.00000000       0.00000000       5.00000000
Mg       0.00000000       5.00000000       0.00000000
O        0.00000000       5.00000000       0.00000000
Mg       0.00000000       5.00000000       5.00000000
O        0.00000000       5.00000000       5.00000000
Mg       5.00000000       0.00000000       0.00000000
O        5.00000000       0.00000000       0.00000000
Mg       5.00000000       0.00000000       5.00000000
O        5.00000000       0.00000000       5.00000000
Mg       5.00000000       5.00000000       0.00000000
O        5.00000000       5.00000000       0.00000000
Mg       5.00000000       5.00000000       5.00000000
O        5.00000000       5.00000000       5.00000000
16
Lattice="10.0 0.0 0.0 0.0 10.0 0.0 0.0 0.0 10.0" Properties=species:S:1:pos:R:3 pbc="T T T"
Mg       0.00000000       0.00000000       0.00000000
O        0.00000000       0.00000000       0.00000000
Mg       0.00000000       0.00000000       5.00000000
O        0.00000000       0.00000000       5.00000000
Mg       0.00000000       5.00000000       0.00000000
O        0.00000000       5.00000000       0.00000000
Mg       0.00000000       5.00000000       5.00000000
O        0.00000000       5.00000000       5.00000000
Mg       5.00000000       0.00000000       0.00000000
O        5.00000000       0.00000000       0.00000000
Mg       5.00000000       0.00000000       5.00000000
O        5.00000000       0.00000000       5.00000000
Mg       5.00000000       5.00000000       0.00000000
O        5.00000000       5.00000000       0.00000000
Mg       5.00000000       5.00000000       5.00000000
O        5.00000000       5.00000000       5.00000000
16
Lattice="10.0 0.0 0.0 0.0 10.0 0.0 0.0 0.0 10.0" Properties=species:S:1:pos:R:3 pbc="T T T"
Mg       0.00000000       0.00000000       0.00000000
O        0.00000000       0.00000000       0.00000000
Mg       0.00000000       0.00000000       5.00000000
O        0.00000000       0.00000000       5.00000000
Mg       0.00000000       5.00000000       0.00000000
O        0.00000000       5.00000000       0.00000000
Mg       0.00000000       5.00000000       5.00000000
O        0.00000000       5.00000000       5.00000000
Mg       5.00000000       0.00000000       0.00000000
O        5.00000000       0.00000000       0.00000000
Mg       5.00000000       0.00000000       5.00000000
O        5.00000000       0.00000000       5.00000000
Mg       5.00000000       5.00000000       0.00000000
O        5.00000000       5.00000000       0.00000000
Mg       5.00000000       5.00000000       5.00000000
O        5.00000000       5.00000000       5.00000000
16
Lattice="10.0 0.0 0.0 0.0 10.0 0.0 0.0 0.0 10.0" Properties=species:S:1:pos:R:3 pbc="T T T"
Mg       0.00000000       0.00000000       0.00000000
O        0.00000000       0.00000000       0.00000000
Mg       0.00000000       0.00000000       5.00000000
O        0.00000000       0.00000000       5.00000000
Mg       0.00000000       5.00000000       0.00000000
O        0.00000000       5.00000000       0.00000000
Mg       0.00000000       5.00000000       5.00000000
O        0.00000000       5.00000000       5.00000000
Mg       5.00000000       0.00000000       0.00000000
O        5.00000000       0.00000000       0.00000000
Mg       5.00000000       0.00000000       5.00000000
O        5.00000000       0.00000000       5.00000000
Mg       5.00000000       5.00000000       0.00000000
O        5.00000000       5.00000000       0.00000000
Mg       5.00000000       5.00000000       5.00000000
O        5.00000000       5.00000000       5.00000000
16
Lattice="10.0 0.0 0.0 0.0 10.0 0.0 0.0 0.0 10.0" Properties=species:S:1:pos:R:3 pbc="T T T"
Mg       0.00000000       0.00000000       0.00000000
O        0.00000000       0.00000000       0.00000000
Mg       0.00000000       0.00000000       5.00000000
O        0.00000000       0.00000000       5.00000000
Mg       0.00000000       5.00000000       0.00000000
O        0.00000000       5.00000000       0.00000000
Mg       0.00000000       5.00000000       5.00000000
O        0.00000000       5.00000000       5.00000000
Mg       5.00000000       0.00000000       0.00000000
O        5.00000000       0.00000000       0.00000000
Mg       5.00000000       0.00000000       5.00000000
O        5.00000000       0.00000000       5.00000000
Mg       5.00000000       5.00000000       0.00000000
O        5.00000000       5.00000000       0.00000000
Mg       5.00000000       5.00000000       5.00000000
O        5.00000000       5.00000000       5.00000000
16
Lattice="10.0 0.0 0.0 0.0 10.0 0.0 0.0 0.0 10.0" Properties=species:S:1:pos:R:3 pbc="T T T"
Mg       0.00000000       0.00000000       0.00000000
O        0.00000000       0.00000000       0.00000000
Mg       0.00000000       0.00000000       5.00000000
O        0.00000000       0.00000000       5.00000000
Mg       0.00000000       5.00000000       0.00000000
O        0.00000000       5.00000000       0.00000000
Mg       0.00000000       5.00000000       5.00000000
O        0.00000000       5.00000000       5.00000000
Mg       5.00000000       0.00000000       0.00000000
O        5.00000000       0.00000000       0.00000000
Mg       5.00000000       0.00000000       5.00000000
O        5.00000000       0.00000000       5.00000000
Mg       5.00000000       5.00000000       0.00000000
O        5.00000000       5.00000000       0.00000000
Mg       5.00000000       5.00000000       5.00000000
O        5.00000000       5.00000000       5.00000000
16
Lattice="10.0 0.0 0.0 0.0 10.0 0.0 0.0 0.0 10.0" Properties=species:S:1:pos:R:3 pbc="T T T"
Mg       0.00000000       0.00000000       0.00000000
O        0.00000000       0.00000000       0.00000000
Mg       0.00000000       0.00000000       5.00000000
O        0.00000000       0.00000000       5.00000000
Mg       0.00000000       5.00000000       0.00000000
O        0.00000000       5.00000000       0.00000000
Mg       0.00000000       5.00000000       5.00000000
O        0.00000000       5.00000000       5.00000000
Mg       5.00000000       0.00000000       0.00000000
O        5.00000000       0.00000000       0.00000000
Mg       5.00000000       0.00000000       5.00000000
O        5.00000000       0.00000000       5.00000000
Mg       5.00000000       5.00000000       0.00000000
O        5.00000000       5.00000000       0.00000000
Mg       5.00000000       5.00000000       5.00000000
O        5.00000000       5.00000000       5.00000000
16
Lattice="10.0 0.0 0.0 0.0 10.0 0.0 0.0 0.0 10.0" Properties=species:S:1:pos:R:3 pbc="T T T"
Mg       0.00000000       0.00000000       0.00000000
O        0.00000000       0.00000000       0.00000000
Mg       0.00000000       0.00000000       5.00000000
O        0.00000000       0.00000000       5.00000000
Mg       0.00000000       5.00000000       0.00000000
O        0.00000000       5.00000000       0.00000000
Mg       0.00000000       5.00000000       5.00000000
O        0.00000000       5.00000000       5.00000000
Mg       5.00000000       0.00000000       0.00000000
O        5.00000000       0.00000000       0.00000000
Mg       5.00000000       0.00000000       5.00000000
O        5.00000000       0.00000000       5.00000000
Mg       5.00000000       5.00000000       0.00000000
O        5.00000000       5.00000000       0.00000000
Mg       5.00000000       5.00000000       5.00000000
O        5.00000000       5.00000000       5.00000000
